root_relax = 810.0
QCR_time = 15.4405
opt = true
obj_val = 810.0
solved_time = 1.2648
explored_nodes = 1
nb_dom_cuts = 15160
urobi/QCR_QP_Dom/bcc81911.txt"
Set parameter Presolve to value 0
Set parameter AggFill to value -1
Set parameter Aggregate to value 0
Set parameter Heuristics to value 0
Set parameter LPWarmStart to value 0
Set parameter NLPHeur to value 0
Set parameter NoRelHeurTime to value 0
Set parameter PreCrush to value 0
Set parameter PreDepRow to value 0
Set parameter PreDual to value 0
Set parameter PrePasses to value -1
Set parameter RINS to value 0
Set parameter Symmetry to value 0
Set parameter PreQLinearize to value 0
Set parameter NonConvex to value 0

Gurobi 12.0.0 (linux64) logging started Thu Aug 14 21:09:19 2025

Set parameter LogFile to value "./res/Gurobi/QCR_QP_Dom/bcc81911.txt"
Set parameter PreCrush to value 0
Set parameter PrePasses to value -1
Set parameter AggFill to value -1
Set parameter NoRelHeurTime to value 0
Set parameter NLPHeur to value 0
Set parameter NonConvex to value 0
Set parameter LPWarmStart to value 0
Set parameter PreDepRow to value 0
Set parameter Symmetry to value 0
Set parameter Presolve to value 0
Gurobi Optimizer version 12.0.0 build v12.0.0rc1 (linux64 - "Debian GNU/Linux 12 (bookworm)")

CPU model: Intel(R) Xeon(R) CPU E5-2650 v3 @ 2.30GHz, instruction set [SSE2|AVX|AVX2]
Thread count: 20 physical cores, 40 logical processors, using up to 20 threads

Non-default parameters:
TimeLimit  1800
LPWarmStart  0
Heuristics  0
RINS  0
NLPHeur  0
Symmetry  0
Aggregate  0
PreDual  0
NonConvex  0
PreDepRow  0
PreQLinearize  0
Presolve  0

Optimize a model with 15160 rows, 63 columns and 197192 nonzeros
Model fingerprint: 0xa3abee97
Model has 1972 quadratic objective terms
Variable types: 0 continuous, 63 integer (63 binary)
Coefficient statistics:
  Matrix range     [1e+00, 1e+00]
  Objective range  [4e+01, 6e+01]
  QObjective range [2e+00, 4e+01]
  Bounds range     [0e+00, 0e+00]
  RHS range        [1e+00, 3e+01]
Variable types: 0 continuous, 63 integer (63 binary)

Root relaxation: objective -9.790001e+02, 180 iterations, 0.08 seconds (0.08 work units)

    Nodes    |    Current Node    |     Objective Bounds      |     Work
 Expl Unexpl |  Obj  Depth IntInf | Incumbent    BestBd   Gap | It/Node Time

     0     0 -979.00014    0   62          - -979.00014      -     -    0s
H    0     0                    -810.0000000 -979.00014  20.9%     -    0s
     0     0 -979.00009    0   63 -810.00000 -979.00009  20.9%     -    0s

Cutting planes:
  MIR: 172

Explored 1 nodes (426 simplex iterations) in 1.26 seconds (0.71 work units)
Thread count was 20 (of 40 available processors)

Solution count 1: -810 
No other solutions better than -810

Optimal solution found (tolerance 1.00e-04)
Best objective -8.100000000000e+02, best bound -8.100000000000e+02, gap 0.0000%

User-callback calls 540, time in user-callback 0.00 sec
